2224.32
0 29 2 13 7 1 12 3 9 0
0 18 15 16 11 4 8 14 6 5 10 0
0 25 23 30 17 19 24 20 31 0
0 34 27 33 22 28 26 21 32 36 41 50 44 39 35 0
0 54 55 58 52 42 48 53 46 37 51 38 45 40 0
0 56 57 43 47 72 0
0 60 59 61 63 66 64 49 67 68 73 70 71 0
0 62 65 0
0 69 74 0
